100
100
3000 3000 3000 3000 3000 3000 3000 3000 3000 3000 3000 3000 3000 3000 3000 3000 3000 3000 3000 3000 3000 3000 3000 3000 3000 3000 3000 3000 3000 3000 3000 3000 3000 3000 3000 3000 3000 3000 3000 3000 3000 3000 3000 3000 3000 3000 3000 3000 3000 3000 3000 3000 3000 3000 3000 3000 3000 3000 3000 3000 3000 3000 3000 3000 3000 3000 3000 3000 3000 3000 3000 3000 3000 3000 3000 3000 3000 3000 3000 3000 3000 3000 3000 3000 3000 3000 3000 3000 3000 3000 3000 3000 3000 3000 3000 3000 3000 3000 3000 3000
0 2 0
0 3 3
0 22 4
0 31 2
0 36 0
0 40 0
0 58 0
0 59 4
0 69 3
0 73 2
1 11 2
1 18 2
1 21 2
1 35 0
1 36 1
1 65 2
1 72 2
1 77 2
1 82 2
1 88 2
2 5 0
2 10 0
2 11 1
2 19 3
2 21 4
2 29 4
2 31 1
2 33 0
2 61 0
2 62 4
3 0 1
3 19 2
3 41 3
3 45 0
3 48 4
3 61 4
3 63 3
3 72 1
3 74 4
3 79 2
4 15 3
4 32 2
4 38 4
4 63 0
4 64 1
4 74 1
4 76 2
4 88 0
4 91 2
4 94 3
5 14 2
5 37 0
5 39 1
5 55 1
5 57 2
5 65 0
5 68 1
5 70 4
5 80 3
5 84 3
6 33 3
6 46 0
6 51 2
6 53 2
6 55 2
6 67 0
6 72 0
6 86 2
6 90 1
6 94 1
7 25 1
7 26 2
7 46 0
7 71 1
7 73 3
7 78 1
7 91 0
7 97 2
7 98 2
7 99 0
8 2 2
8 16 1
8 68 1
8 70 4
8 72 4
8 79 4
8 93 4
8 94 4
8 95 1
8 98 4
9 9 2
9 19 1
9 23 4
9 54 2
9 67 1
9 73 1
9 82 1
9 89 2
9 91 1
9 94 2
10 11 1
10 18 2
10 31 1
10 39 1
10 41 3
10 42 3
10 45 3
10 57 0
10 70 3
10 76 4
11 7 3
11 11 2
11 61 0
11 63 3
11 66 1
11 70 4
11 74 3
11 79 0
11 81 0
11 98 2
12 6 1
12 16 0
12 19 2
12 29 2
12 37 0
12 41 2
12 43 1
12 46 1
12 61 1
12 62 4
13 10 3
13 11 2
13 15 0
13 22 3
13 25 2
13 37 0
13 38 1
13 39 1
13 49 1
13 57 4
14 26 0
14 35 4
14 41 0
14 50 2
14 54 3
14 60 1
14 62 0
14 81 1
14 82 4
14 86 2
15 1 2
15 21 0
15 35 1
15 52 4
15 63 3
15 80 2
15 83 0
15 87 1
15 95 4
15 96 2
16 3 2
16 5 1
16 13 0
16 24 2
16 33 1
16 37 0
16 49 2
16 54 3
16 55 2
16 66 3
17 10 1
17 27 4
17 31 3
17 32 4
17 74 1
17 83 1
17 93 0
17 94 4
17 96 4
17 97 4
18 10 4
18 11 0
18 15 2
18 20 0
18 23 4
18 34 0
18 39 0
18 44 1
18 50 4
18 51 4
19 46 0
19 57 4
19 60 4
19 66 2
19 77 0
19 84 0
19 85 2
19 88 2
19 93 3
19 95 1
20 7 3
20 9 3
20 23 3
20 26 4
20 28 0
20 42 3
20 47 2
20 48 4
20 54 0
20 86 2
21 20 3
21 35 0
21 36 1
21 38 1
21 46 4
21 54 2
21 55 3
21 73 0
21 74 0
21 77 3
22 7 3
22 31 1
22 46 1
22 62 1
22 75 1
22 79 1
22 80 3
22 84 3
22 85 0
22 90 1
23 9 3
23 11 0
23 26 1
23 53 0
23 56 0
23 73 3
23 82 3
23 92 4
23 93 2
23 94 4
24 0 2
24 1 4
24 3 0
24 4 1
24 13 2
24 17 1
24 26 1
24 28 3
24 29 0
24 32 1
25 2 3
25 4 3
25 20 0
25 25 3
25 31 1
25 33 1
25 40 0
25 56 4
25 65 2
25 69 0
26 3 2
26 4 0
26 8 4
26 16 3
26 28 0
26 30 4
26 34 3
26 45 1
26 59 2
26 62 2
27 0 4
27 14 4
27 20 0
27 36 3
27 37 0
27 41 3
27 54 0
27 70 2
27 73 3
27 78 0
28 8 4
28 12 3
28 18 0
28 32 2
28 36 0
28 44 1
28 47 4
28 49 0
28 63 3
28 84 1
29 4 4
29 19 3
29 30 2
29 44 3
29 45 4
29 50 0
29 59 2
29 65 2
29 67 2
29 68 2
30 9 4
30 15 3
30 33 0
30 44 4
30 53 3
30 75 1
30 81 2
30 90 0
30 91 3
30 96 1
31 2 4
31 6 0
31 9 4
31 14 2
31 24 1
31 29 4
31 30 2
31 37 2
31 49 1
31 50 1
32 2 3
32 6 0
32 12 2
32 16 3
32 25 2
32 26 4
32 44 0
32 49 0
32 58 2
32 66 3
33 0 0
33 7 3
33 22 0
33 26 3
33 38 0
33 42 1
33 66 1
33 67 2
33 78 3
33 81 2
34 14 2
34 27 4
34 32 3
34 43 1
34 59 0
34 62 3
34 80 2
34 81 2
34 87 4
34 88 3
35 0 1
35 1 0
35 2 3
35 28 3
35 51 2
35 53 3
35 68 2
35 71 1
35 82 3
35 84 0
36 15 0
36 31 0
36 34 0
36 35 0
36 53 2
36 77 2
36 79 4
36 83 1
36 92 3
36 93 1
37 9 1
37 13 2
37 24 0
37 64 3
37 69 1
37 77 4
37 80 0
37 85 4
37 90 0
37 92 2
38 0 0
38 9 3
38 10 3
38 13 0
38 29 4
38 40 3
38 43 1
38 44 0
38 50 4
38 60 4
39 8 4
39 17 1
39 24 1
39 27 1
39 56 4
39 57 1
39 62 4
39 69 1
39 75 3
39 77 1
40 2 1
40 15 4
40 17 0
40 19 3
40 23 4
40 30 4
40 40 0
40 42 3
40 49 1
40 52 4
41 14 1
41 30 0
41 42 2
41 64 3
41 76 2
41 80 1
41 95 0
41 96 0
41 97 3
41 99 0
42 5 4
42 17 0
42 27 1
42 45 2
42 50 1
42 51 2
42 53 3
42 70 1
42 71 1
42 72 0
43 5 3
43 9 2
43 20 4
43 24 3
43 25 4
43 27 3
43 41 2
43 55 1
43 88 4
43 89 2
44 5 1
44 25 0
44 31 1
44 32 3
44 44 1
44 50 0
44 51 2
44 56 0
44 58 2
44 59 0
45 6 4
45 18 4
45 20 1
45 35 1
45 39 1
45 55 0
45 75 0
45 81 2
45 87 1
45 89 2
46 1 3
46 16 4
46 18 1
46 22 3
46 38 0
46 39 0
46 76 0
46 87 0
46 91 2
46 92 1
47 7 0
47 24 2
47 35 1
47 43 0
47 45 1
47 52 2
47 54 2
47 56 3
47 67 1
47 70 1
48 5 4
48 17 1
48 42 3
48 48 0
48 53 2
48 67 3
48 74 3
48 76 2
48 84 1
48 86 0
49 3 1
49 10 3
49 28 4
49 35 2
49 37 3
49 38 2
49 60 1
49 61 0
49 75 0
49 82 4
50 13 2
50 28 4
50 34 1
50 43 4
50 54 3
50 56 0
50 75 2
50 93 2
50 97 2
50 99 4
51 1 2
51 11 2
51 19 4
51 58 2
51 61 0
51 72 4
51 74 4
51 90 4
51 92 2
51 93 1
52 2 0
52 13 2
52 48 4
52 55 0
52 56 3
52 60 0
52 78 2
52 89 3
52 91 3
52 92 3
53 4 3
53 10 2
53 12 0
53 28 2
53 29 0
53 30 3
53 32 1
53 40 3
53 47 0
53 71 3
54 4 4
54 6 1
54 22 3
54 46 0
54 66 4
54 73 3
54 77 2
54 86 2
54 87 3
54 90 2
55 1 1
55 3 1
55 12 0
55 26 1
55 27 0
55 56 0
55 60 0
55 76 1
55 89 3
55 97 2
56 32 1
56 40 4
56 52 4
56 64 3
56 69 3
56 72 3
56 86 1
56 95 0
56 98 0
56 99 1
57 4 0
57 38 0
57 41 3
57 50 0
57 59 1
57 60 4
57 66 0
57 69 3
57 88 1
57 89 2
58 0 1
58 21 0
58 45 3
58 47 0
58 48 2
58 76 0
58 77 3
58 84 4
58 85 0
58 86 4
59 7 0
59 19 2
59 27 0
59 30 4
59 44 0
59 47 0
59 59 0
59 60 2
59 67 0
59 72 4
60 14 0
60 36 0
60 43 4
60 46 4
60 49 2
60 64 1
60 71 2
60 74 4
60 87 4
60 88 1
61 12 2
61 40 2
61 62 2
61 63 3
61 81 1
61 82 0
61 94 2
61 97 3
61 98 3
61 99 4
62 7 0
62 18 0
62 28 0
62 36 0
62 40 0
62 42 4
62 48 2
62 53 3
62 67 4
62 91 4
63 31 2
63 58 4
63 90 4
63 92 2
63 93 4
63 95 2
63 96 0
63 97 3
63 98 1
63 99 1
64 3 1
64 7 3
64 37 3
64 48 0
64 66 2
64 67 2
64 68 4
64 85 4
64 86 2
64 93 1
65 4 2
65 6 2
65 27 3
65 41 1
65 46 4
65 61 2
65 89 1
65 90 0
65 94 3
65 99 2
66 1 4
66 15 0
66 16 4
66 20 3
66 21 4
66 32 3
66 42 1
66 59 3
66 64 3
66 65 4
67 3 3
67 12 2
67 32 3
67 48 1
67 51 2
67 78 1
67 87 0
67 93 0
67 96 1
67 98 2
68 16 0
68 27 1
68 38 1
68 74 1
68 77 1
68 85 2
68 96 1
68 97 2
68 98 1
68 99 3
69 8 3
69 10 3
69 12 2
69 23 0
69 38 2
69 39 1
69 44 0
69 52 0
69 69 0
69 77 1
70 16 0
70 17 3
70 18 3
70 22 4
70 26 0
70 36 1
70 39 0
70 73 0
70 75 2
70 78 4
71 1 2
71 5 3
71 9 4
71 15 3
71 21 2
71 24 0
71 33 2
71 34 0
71 43 1
71 53 4
72 21 2
72 22 0
72 43 4
72 51 1
72 52 4
72 57 0
72 60 0
72 63 3
72 83 3
72 86 4
73 11 0
73 24 0
73 36 1
73 57 3
73 73 4
73 75 3
73 79 1
73 85 2
73 92 4
73 94 1
74 1 1
74 11 3
74 13 4
74 24 2
74 29 4
74 43 2
74 51 3
74 78 3
74 83 2
74 88 2
75 6 1
75 7 3
75 10 2
75 13 0
75 14 4
75 29 1
75 47 2
75 52 0
75 68 3
75 85 4
76 8 1
76 43 1
76 51 1
76 58 3
76 84 1
76 95 4
76 96 0
76 97 4
76 98 2
76 99 4
77 7 3
77 8 1
77 12 1
77 19 3
77 47 2
77 62 2
77 66 2
77 68 2
77 72 3
77 76 1
78 4 1
78 17 0
78 48 4
78 56 3
78 57 2
78 65 2
78 67 1
78 68 0
78 74 0
78 79 2
79 8 3
79 23 1
79 24 2
79 28 4
79 46 0
79 50 1
79 53 0
79 56 2
79 85 0
79 89 1
80 13 1
80 14 3
80 25 2
80 57 2
80 61 1
80 76 2
80 87 0
80 95 2
80 96 0
80 97 1
81 2 1
81 13 3
81 16 0
81 33 2
81 47 3
81 59 1
81 63 2
81 68 3
81 69 2
81 75 0
82 3 2
82 5 4
82 17 0
82 23 1
82 34 3
82 37 1
82 60 3
82 66 4
82 78 2
82 87 2
83 21 4
83 30 4
83 54 0
83 70 1
83 71 3
83 75 0
83 76 4
83 79 0
83 88 3
83 95 0
84 0 0
84 2 1
84 5 3
84 8 1
84 18 2
84 20 3
84 21 0
84 29 3
84 33 3
84 37 1
85 0 2
85 9 0
85 20 3
85 34 4
85 41 1
85 42 3
85 45 4
85 64 3
85 65 1
85 82 2
86 5 1
86 17 3
86 45 4
86 49 3
86 51 2
86 58 4
86 59 2
86 64 4
86 68 1
86 71 0
87 14 3
87 42 4
87 50 1
87 72 3
87 81 3
87 89 0
87 91 0
87 95 3
87 98 2
87 99 2
88 8 3
88 26 4
88 30 2
88 63 2
88 65 0
88 80 2
88 82 1
88 85 4
88 87 2
88 89 3
89 22 3
89 25 2
89 35 0
89 47 1
89 49 0
89 64 0
89 65 2
89 79 4
89 80 4
89 81 0
90 6 3
90 23 3
90 28 2
90 34 1
90 36 2
90 40 1
90 48 4
90 52 4
90 58 3
90 63 3
91 4 2
91 6 3
91 14 4
91 40 0
91 45 4
91 52 3
91 54 2
91 69 2
91 70 3
91 78 0
92 38 0
92 52 2
92 70 4
92 71 1
92 80 3
92 83 0
92 90 1
92 92 2
92 94 3
92 96 2
93 0 2
93 25 1
93 30 2
93 33 1
93 39 2
93 49 3
93 55 0
93 61 3
93 62 4
93 65 4
94 12 2
94 18 1
94 22 1
94 23 4
94 25 3
94 69 0
94 82 3
94 83 1
94 86 0
94 91 2
95 6 0
95 19 1
95 33 3
95 39 0
95 57 4
95 58 3
95 71 2
95 73 0
95 80 1
95 83 2
96 3 1
96 8 4
96 18 0
96 23 2
96 34 3
96 47 3
96 58 2
96 61 2
96 83 4
96 84 2
97 1 3
97 10 0
97 20 2
97 34 2
97 71 3
97 83 4
97 84 0
97 90 1
97 91 0
97 92 2
98 15 3
98 21 4
98 22 0
98 27 2
98 31 3
98 35 1
98 41 1
98 55 0
98 64 2
98 79 3
99 12 2
99 15 1
99 16 1
99 17 2
99 29 1
99 44 0
99 55 0
99 78 2
99 81 4
99 88 2
